min: Z+1.0000000000;
x0 + x1 + x2 + x3 = 1;
Z+1.0000000000  - 1.00000000000000000000 x0 - 2.00000000000000000000 x1 - 3.00000000000000000000 x2 - 4.00000000000000000000 x3 >= 0;
Z+1.0000000000  - 5.00000000000000000000 x0 - 6.00000000000000000000 x1 - 7.00000000000000000000 x2 - 8.00000000000000000000 x3 >= 0;
